
(set-logic ALL) 

(declare-datatype MyList ((Nil) (Cons (head Real) (tail MyList)) )) 
(declare-fun l0 () MyList) 
(declare-fun l1 () MyList) 
(declare-fun l2 () MyList) 
(declare-fun l3 () MyList) 
(declare-fun i0 () Real) 
(declare-fun i1 () Real) 
(assert (and (= l3 Nil) (= l2 Nil)) )
(assert (and (= l0 l3) (is-Nil Nil)) )
(assert (or (= l1 l3) (= l0 Nil) (= l3 l1)) )
(assert (not (= l3 Nil)) )
(assert (not (is-Cons Nil)) )
(assert (not (is-Nil l1)) )
(assert (= l3 Nil) )
(assert (not (is-Nil l3)) )
(check-sat)
